Traveling Salesman Problem/TSP_generados/Aleatorio1620392132_16.tsp
NAME: Aleatorio1620392132_16.tsp
COMMENT: Randomly generated scenario
TYPE: TSP
DIMENSION: 16
EDGE_WEIGHT_TYPE: ATT
NODE_COORD_SECTION
1 14.6 31.85
2 7.73 15.05
3 17.79 27.71
4 22.35 37.13
5 38.17 48.6
6 41.94 34.11
7 11.01 20.68
8 34.87 37.35
9 25.89 2.3
10 28.43 46.97
11 35.8 41.61
12 20.01 46.69
13 25.95 20.99
14 19.13 33.47
15 0.23 2.71
16 33.57 8.91
