Traveling Salesman Problem/TSP_generados/Aleatorio1620392132_16.opt.tour
NAME: Aleatorio1620392132_16.opt.tour
COMMENT: Optimal solution for Aleatorio1620392132_16 (164.058049704721)
TYPE: TOUR
DIMENSION: 16
TOUR_SECTION
1 3 7 2 15 9 16 13 6 8 11 5 10 12 4 14
-1
EOF
